
data;

set G := A B C D E;
set T := 1 2 3 4 5 6 7 8;

param cost : 
	1	2	3	4	5	6	7	8 :=
A	1	2	2	1	4	4	5	3
B	2	3	3	3	1	4	5	3
C	3	4	1	2	1	4	5	1
D	1	1	2	2	3	4	5	2
E	1	1	1	1	1	1	5	5;

param gas :=
A 75000
B 50000
C 25000
D 80000
E 20000;

param cap := 
1 25000
2 25000
3 30000
4 60000
5 80000
6 85000
7 100000
8 50000;